

******************************************************************************
This program contains Ipopt, a library for large-scale nonlinear optimization.
 Ipopt is released as open source code under the Eclipse Public License (EPL).
         For more information visit https://github.com/coin-or/Ipopt
******************************************************************************

This is Ipopt version 3.14.11, running with linear solver MUMPS 5.5.1.

Number of nonzeros in equality constraint Jacobian...:        0
Number of nonzeros in inequality constraint Jacobian.:        9
Number of nonzeros in Lagrangian Hessian.............:        2

Total number of variables............................:        3
                     variables with only lower bounds:        0
                variables with lower and upper bounds:        0
                     variables with only upper bounds:        0
Total number of equality constraints.................:        0
Total number of inequality constraints...............:        3
        inequality constraints with only lower bounds:        0
   inequality constraints with lower and upper bounds:        0
        inequality constraints with only upper bounds:        3

iter    objective    inf_pr   inf_du lg(mu)  ||d||  lg(rg) alpha_du alpha_pr  ls
   0  0.0000000e+00 2.10e+04 9.84e-01  -1.0 0.00e+00    -  0.00e+00 0.00e+00   0
   1  1.0761194e-01 0.00e+00 1.41e-01  -1.0 1.27e-01    -  1.00e+00 1.00e+00h  1
   2  6.3165390e-02 0.00e+00 5.84e-03  -1.7 2.73e-01    -  1.00e+00 1.00e+00h  1
   3  6.6223883e-04 0.00e+00 3.86e-04  -3.8 7.94e-01    -  1.00e+00 1.00e+00h  1
   4  4.6141703e-04 0.00e+00 3.39e-05  -3.8 1.55e-02    -  1.00e+00 1.00e+00h  1
   5  5.5367441e-06 0.00e+00 1.81e-07  -5.7 7.34e-03    -  1.00e+00 1.00e+00h  1
   6 -3.5139534e-09 0.00e+00 5.79e-10  -8.6 8.50e-05    -  1.00e+00 1.00e+00h  1

Number of Iterations....: 6

                                   (scaled)                 (unscaled)
Objective...............:  -3.5139533997429612e-09   -3.5139533997429612e-09
Dual infeasibility......:   5.7929572250259298e-10    5.7929572250259298e-10
Constraint violation....:   0.0000000000000000e+00    0.0000000000000000e+00
Variable bound violation:   0.0000000000000000e+00    0.0000000000000000e+00
Complementarity.........:   2.7571195325542294e-09    2.7571195325542294e-09
Overall NLP error.......:   2.7571195325542294e-09    2.7571195325542294e-09


Number of objective function evaluations             = 7
Number of objective gradient evaluations             = 7
Number of equality constraint evaluations            = 0
Number of inequality constraint evaluations          = 7
Number of equality constraint Jacobian evaluations   = 0
Number of inequality constraint Jacobian evaluations = 7
Number of Lagrangian Hessian evaluations             = 6
Total seconds in IPOPT                               = 0.004

EXIT: Optimal Solution Found.
 
Ipopt 3.14.11: Optimal Solution Found
